<?xml version = "1.0" standalone="yes"?>
<!-- This file has been generated by DOcplex version 2.23.222  -->
<CPLEXSolution version="1.0">
 <header
   problemName="CVRP"
   objectiveValue="21899.3"
  />
 <variables>
  <variable name="x_0_1" index="0" value="1.00000"/>
  <variable name="x_0_2" index="1" value="1.00000"/>
  <variable name="x_0_5" index="4" value="1.00000"/>
  <variable name="x_0_7" index="6" value="1.00000"/>
  <variable name="x_0_8" index="7" value="1.00000"/>
  <variable name="x_0_9" index="8" value="1.00000"/>
  <variable name="x_0_13" index="12" value="1.00000"/>
  <variable name="x_0_14" index="13" value="1.00000"/>
  <variable name="x_0_16" index="15" value="1.00000"/>
  <variable name="x_0_17" index="16" value="1.00000"/>
  <variable name="x_0_19" index="18" value="1.00000"/>
  <variable name="x_0_21" index="20" value="1.00000"/>
  <variable name="x_0_22" index="21" value="1.00000"/>
  <variable name="x_0_23" index="22" value="1.00000"/>
  <variable name="x_0_24" index="23" value="1.00000"/>
  <variable name="x_0_25" index="24" value="1.00000"/>
  <variable name="x_1_15" index="39" value="1.00000"/>
  <variable name="x_2_11" index="60" value="1.00000"/>
  <variable name="x_3_0" index="75" value="1.00000"/>
  <variable name="x_4_0" index="100" value="1.00000"/>
  <variable name="x_5_0" index="125" value="1.00000"/>
  <variable name="x_6_18" index="167" value="1.00000"/>
  <variable name="x_7_0" index="175" value="1.00000"/>
  <variable name="x_8_0" index="200" value="1.00000"/>
  <variable name="x_9_0" index="225" value="1.00000"/>
  <variable name="x_10_3" index="253" value="1.00000"/>
  <variable name="x_11_0" index="275" value="1.00000"/>
  <variable name="x_12_0" index="300" value="1.00000"/>
  <variable name="x_13_0" index="325" value="1.00000"/>
  <variable name="x_14_0" index="350" value="1.00000"/>
  <variable name="x_15_20" index="394" value="1.00000"/>
  <variable name="x_16_0" index="400" value="1.00000"/>
  <variable name="x_17_10" index="435" value="1.00000"/>
  <variable name="x_18_0" index="450" value="1.00000"/>
  <variable name="x_19_0" index="475" value="1.00000"/>
  <variable name="x_20_0" index="500" value="1.00000"/>
  <variable name="x_21_12" index="537" value="1.00000"/>
  <variable name="x_22_0" index="550" value="1.00000"/>
  <variable name="x_23_0" index="575" value="1.00000"/>
  <variable name="x_24_6" index="606" value="1.00000"/>
  <variable name="x_25_4" index="629" value="1.00000"/>
  <variable name="u_1" index="650" value="28.00000"/>
  <variable name="u_2" index="651" value="31.00000"/>
  <variable name="u_3" index="652" value="56.00000"/>
  <variable name="u_4" index="653" value="56.00000"/>
  <variable name="u_5" index="654" value="44.00000"/>
  <variable name="u_6" index="655" value="37.00000"/>
  <variable name="u_7" index="656" value="56.00000"/>
  <variable name="u_8" index="657" value="56.00000"/>
  <variable name="u_9" index="658" value="48.00000"/>
  <variable name="u_10" index="659" value="49.00000"/>
  <variable name="u_11" index="660" value="47.00000"/>
  <variable name="u_12" index="661" value="56.00000"/>
  <variable name="u_13" index="662" value="48.00000"/>
  <variable name="u_14" index="663" value="51.00000"/>
  <variable name="u_15" index="664" value="44.00000"/>
  <variable name="u_16" index="665" value="34.00000"/>
  <variable name="u_17" index="666" value="13.00000"/>
  <variable name="u_18" index="667" value="56.00000"/>
  <variable name="u_19" index="668" value="42.00000"/>
  <variable name="u_20" index="669" value="56.00000"/>
  <variable name="u_21" index="670" value="15.00000"/>
  <variable name="u_22" index="671" value="56.00000"/>
  <variable name="u_23" index="672" value="56.00000"/>
  <variable name="u_24" index="673" value="15.00000"/>
  <variable name="u_25" index="674" value="33.00000"/>
 </variables>
</CPLEXSolution>
